# Objective value = 6
c_n0n4n5 3
c_n0n4n7 3
y_n0n1 1
y_n1n2 0
y_n0n2 1
y_n1n3 0
y_n0n3 1
y_n1n4 0
y_n0n4 1
y_n1n5 0
y_n0n5 0
y_n1n6 0
y_n0n6 0
y_n1n7 0
y_n0n7 1
y_n2n3 0
y_n2n4 0
y_n2n5 0
y_n2n6 0
y_n2n7 0
y_n3n4 0
y_n3n5 0
y_n3n6 0
y_n3n7 0
y_n4n5 0
y_n4n6 0
y_n4n7 1
y_n5n6 0
y_n5n7 1
y_n6n7 1
pos_n0 2
pos_n1 7
pos_n2 6
pos_n3 5
pos_n4 3
pos_n5 1
pos_n6 0
pos_n7 4
z_n1n7 0
z_n4n7 1
z_n5n7 0
z_n1n4 0
z_n1n5 0
z_n4n5 0
z_n0n2 0
z_n1n6 0
z_n0n5 1
z_n0n7 0
z_n4n6 0
z_n0n6 0
z_n0n4 1
z_n3n5 0
z_n2n3 0
z_n2n5 0
